p cnf 7230 17
-5921 6054 0
-5293 -5901 -6059 0
-3264 -5925 -6057 0
-5767 -5923 -6055 0
5293 -6060 0
3264 -6058 0
5767 -6056 0
6059 6060 0
6057 6058 0
6055 6056 0
5901 -6060 0
5925 -6058 0
5923 -6056 0
-6053 -6054 0
5903 -6062 0
5295 -6062 0
6053 6054 0
